(declare-fun a () Int)
(declare-fun b () Int)
(declare-fun c () Int)
(declare-fun d () Bool)
(declare-fun e () Bool)
(declare-fun f () Bool)
(declare-fun g () Bool)
(declare-fun h () Bool)
(declare-fun i () Bool)
(declare-fun j () Bool)
(declare-fun k () Bool)
(declare-fun l () Bool)
(declare-fun m () Bool)
(declare-fun n () Bool)
(declare-fun o () Bool)
(declare-fun p () Int)
(declare-fun q () Bool)
(declare-fun r () Bool)
(declare-fun s () Bool)
(declare-fun t () Int)
(assert (and j (< 0 t 31) f q (<= 0 a 1) (<= 0 c 3) (> (* b t) 0) l (<= 0 p 1) e d (or o (> 0 (- c a (* 2 p)))) g k m h n s r i))
(check-sat)
